WARNING: for repeatability, setting FPU to use double precision
============================[ Problem Statistics ]=============================
|                                                                             |
|  Number of variables:            50                                         |
|  Number of clauses:             218                                         |
|  Parse time:                   0.00 s                                       |
|                                                                             |
============================[ Search Statistics ]==============================
| Conflicts |          ORIGINAL         |          LEARNT          | Progress |
|           |    Vars  Clauses Literals |    Limit  Clauses Lit/Cl |          |
===============================================================================
===============================================================================
restarts              : 1
conflicts             : 52             (35278 /sec)
decisions             : 69             (0.00 % random) (46811 /sec)
propagations          : 825            (559701 /sec)
conflict literals     : 247            (15.41 % deleted)
Memory used           : 20.00 MB
CPU time              : 0.001474 s

SATISFIABLE
